c *********************************
c * Circuit generated by BenCGen
c *
c * Decoder_4_16
c *
c * Ports with 1 gate(s): 5
c * Ports with 2 gate(s): 1
c * Ports with 4 gate(s): 16
c * Total gates: 22
c *********************************
p cnf 26 93
1 22 0
-1 -22 0
1 -21 0
22 -21 0
-1 -22 21 0
1 23 0
-1 -23 0
2 24 0
-2 -24 0
3 25 0
-3 -25 0
4 26 0
-4 -26 0
23 -5 0
24 -5 0
25 -5 0
26 -5 0
-23 -24 -25 -26 5 0
1 -6 0
24 -6 0
25 -6 0
26 -6 0
-1 -24 -25 -26 6 0
23 -7 0
2 -7 0
25 -7 0
26 -7 0
-23 -2 -25 -26 7 0
1 -8 0
2 -8 0
25 -8 0
26 -8 0
-1 -2 -25 -26 8 0
23 -9 0
24 -9 0
3 -9 0
26 -9 0
-23 -24 -3 -26 9 0
1 -10 0
24 -10 0
3 -10 0
26 -10 0
-1 -24 -3 -26 10 0
23 -11 0
2 -11 0
3 -11 0
26 -11 0
-23 -2 -3 -26 11 0
1 -12 0
2 -12 0
3 -12 0
26 -12 0
-1 -2 -3 -26 12 0
23 -13 0
24 -13 0
25 -13 0
4 -13 0
-23 -24 -25 -4 13 0
1 -14 0
24 -14 0
25 -14 0
4 -14 0
-1 -24 -25 -4 14 0
23 -15 0
2 -15 0
25 -15 0
4 -15 0
-23 -2 -25 -4 15 0
1 -16 0
2 -16 0
25 -16 0
4 -16 0
-1 -2 -25 -4 16 0
23 -17 0
24 -17 0
3 -17 0
4 -17 0
-23 -24 -3 -4 17 0
1 -18 0
24 -18 0
3 -18 0
4 -18 0
-1 -24 -3 -4 18 0
23 -19 0
2 -19 0
3 -19 0
4 -19 0
-23 -2 -3 -4 19 0
1 -20 0
2 -20 0
3 -20 0
4 -20 0
-1 -2 -3 -4 20 0
